NAME : Unnamed.8090.tour
COMMENT : Length = 8090
COMMENT : Found by LKH [Keld Helsgaun] Sun Nov 29 23:30:11 2020
TYPE : TOUR
DIMENSION : 52
TOUR_SECTION
1
3
2
20
19
18
17
16
15
14
13
12
11
10
9
8
7
6
5
4
25
24
23
43
44
45
46
26
27
47
48
28
29
30
31
49
32
33
34
35
36
37
38
39
50
52
51
40
21
41
42
22
-1
EOF
